% Auto-generated by scripts/generate_dzn.py
% problem_type   = regex
% instance       = regex_21
% source_json    = instances_json/1_medium_blowup/regex_21.json
% blowup         = 3.0
% representation = DFA

mode = 0;

var_count = 17;
Q = 21;
S = 3;
q0 = 1;
F = {14, 15, 16, 17, 18, 19, 20, 21};
d_dfa = array2d(1..21, 1..3, [
  2, 1, 1,
  2, 3, 1,
  5, 4, 4,
  7, 6, 6,
  7, 8, 6,
  10, 9, 9,
  10, 11, 9,
  13, 12, 12,
  15, 14, 14,
  15, 16, 14,
  18, 17, 17,
  20, 19, 19,
  20, 21, 19,
  2, 1, 1,
  2, 3, 1,
  5, 4, 4,
  7, 6, 6,
  7, 8, 6,
  10, 9, 9,
  10, 11, 9,
  13, 12, 12
]);
d_nfa = array2d(1..21, 1..3, [
  {}, {}, {},
  {}, {}, {},
  {}, {}, {},
  {}, {}, {},
  {}, {}, {},
  {}, {}, {},
  {}, {}, {},
  {}, {}, {},
  {}, {}, {},
  {}, {}, {},
  {}, {}, {},
  {}, {}, {},
  {}, {}, {},
  {}, {}, {},
  {}, {}, {},
  {}, {}, {},
  {}, {}, {},
  {}, {}, {},
  {}, {}, {},
  {}, {}, {},
  {}, {}, {}
]);
